data; 

# include the constants
include MarkovActvConst.dat;

# the true value of VoT
param trueValueOfTime :=  30.0;		# HKD per hour

# the true parameters of utility function
param trueU0 :=
	1	1.0
	2	0.0
	3	0.0
;
param trueUm :=
	1	400
	2	1000
	3	450
;
param trueGamma :=
	1	-0.008
	2	0.01
	3	0.01
;
param trueXi :=
	1	720
	2	720
	3	1110
;